Route #1: 18 26 23 24 35 29 20 15 38
Route #2: 6 19
Route #3: 12 4 25 27 40 11 37 8 9 2 32 13 43 17 16 39 3
Route #4: 28 30 31 14 7
Route #5: 10 42 41 36 33 5
Route #6: 21 22 34 1
cost 1059.6002568623771
